(set-option :print-success false)
(set-logic QF_UF)
(declare-sort x134 0)
(declare-sort x1 0)
(declare-fun x47 (x1 x1) x1)
(declare-fun x15 () x1)
(declare-fun x34 () x1)
(declare-fun x152 () x1)
(declare-fun x106 (x1 x1) x1)
(declare-fun x2 () x1)
(declare-fun x44 () x1)
(assert (or (= (x106 x44 x44) x44) (or (= (x106 x2 x2) x2) (or (= (x106 x15 x15) x15) (or (= x34 (x106 x34 x34)) (= (x106 x152 x152) x152))))))
(assert (let ((x124 (x106 x15 x34)) (x10 (x106 x2 x15)) (x94 (x106 x34 x15)) (x40 (x106 x2 x34)) (x119 (x106 x2 x44)) (x19 (x106 x152 x44)) (x159 (x106 x34 x44)) (x77 (x106 x15 x15)) (x70 (x106 x44 x152)) (x93 (x106 x15 x152)) (x135 (x106 x152 x2)) (x147 (x106 x15 x2)) (x68 (x106 x2 x2)) (x18 (x106 x44 x34)) (x62 (x106 x2 x152)) (x7 (x106 x44 x2)) (x86 (x106 x15 x44)) (x80 (x106 x152 x152)) (x61 (x106 x34 x152)) (x113 (x106 x34 x2)) (x112 (x106 x44 x15)) (x56 (x106 x152 x15)) (x121 (x106 x34 x34)) (x4 (x106 x152 x34)) (x45 (x106 x44 x44))) (and (and (and (and (and (and (and (and (or (or (or (= x80 x15) (or (= x80 x34) (= x80 x152))) (= x2 x80)) (= x80 x44)) (or (= x4 x44) (or (= x2 x4) (or (= x4 x15) (or (= x4 x152) (= x34 x4)))))) (or (or (or (= x56 x15) (or (= x56 x34) (= x152 x56))) (= x2 x56)) (= x44 x56))) (or (or (or (= x15 x135) (or (= x135 x152) (= x135 x34))) (= x135 x2)) (= x135 x44))) (or (= x19 x44) (or (or (= x15 x19) (or (= x34 x19) (= x152 x19))) (= x19 x2)))) (and (or (= x159 x44) (or (= x2 x159) (or (or (= x159 x34) (= x159 x152)) (= x15 x159)))) (and (and (or (or (= x2 x94) (or (= x15 x94) (or (= x94 x34) (= x152 x94)))) (= x44 x94)) (and (or (= x44 x121) (or (= x2 x121) (or (= x15 x121) (or (= x121 x152) (= x121 x34))))) (or (= x61 x44) (or (= x61 x2) (or (= x61 x15) (or (= x61 x152) (= x34 x61))))))) (or (or (= x2 x113) (or (= x15 x113) (or (= x34 x113) (= x152 x113)))) (= x113 x44))))) (and (or (or (or (= x15 x86) (or (= x152 x86) (= x86 x34))) (= x86 x2)) (= x44 x86)) (and (or (= x147 x44) (or (= x2 x147) (or (= x147 x15) (or (= x34 x147) (= x152 x147))))) (and (or (or (= x2 x77) (or (or (= x77 x34) (= x152 x77)) (= x77 x15))) (= x77 x44)) (and (or (or (or (or (= x124 x34) (= x124 x152)) (= x15 x124)) (= x124 x2)) (= x44 x124)) (or (= x44 x93) (or (or (= x93 x15) (or (= x34 x93) (= x93 x152))) (= x2 x93)))))))) (and (and (and (and (or (or (= x2 x40) (or (= x15 x40) (or (= x40 x152) (= x34 x40)))) (= x40 x44)) (or (or (= x2 x62) (or (= x62 x15) (or (= x62 x152) (= x62 x34)))) (= x44 x62))) (or (= x10 x44) (or (= x10 x2) (or (or (= x10 x34) (= x152 x10)) (= x15 x10))))) (or (= x68 x44) (or (or (or (= x68 x34) (= x68 x152)) (= x15 x68)) (= x68 x2)))) (or (= x119 x44) (or (or (= x15 x119) (or (= x119 x152) (= x34 x119))) (= x2 x119))))) (and (and (and (or (or (or (= x15 x112) (or (= x34 x112) (= x152 x112))) (= x2 x112)) (= x44 x112)) (and (or (or (= x2 x70) (or (= x70 x15) (or (= x70 x152) (= x70 x34)))) (= x44 x70)) (or (or (= x2 x18) (or (or (= x18 x152) (= x34 x18)) (= x15 x18))) (= x44 x18)))) (or (= x7 x44) (or (= x2 x7) (or (= x7 x15) (or (= x34 x7) (= x152 x7)))))) (or (= x45 x44) (or (or (or (= x34 x45) (= x45 x152)) (= x45 x15)) (= x2 x45)))))))
(assert (let ((x18 (x106 x34 x44)) (x11 (x106 x44 x34)) (x108 (x106 x44 x2)) (x51 (x106 x44 x44)) (x19 (x106 x152 x2)) (x61 (x106 x152 x44)) (x129 (x106 x15 x15)) (x113 (x106 x15 x152)) (x56 (x106 x152 x34)) (x119 (x106 x34 x15)) (x4 (x106 x152 x152)) (x70 (x106 x34 x2)) (x135 (x106 x152 x15)) (x159 (x106 x2 x152)) (x59 (x106 x2 x2)) (x83 (x106 x2 x44)) (x138 (x106 x2 x15)) (x154 (x106 x44 x15)) (x92 (x106 x15 x44)) (x94 (x106 x34 x152)) (x93 (x106 x44 x152)) (x88 (x106 x2 x34)) (x68 (x106 x34 x34)) (x36 (x106 x15 x2)) (x45 (x106 x15 x34))) (let ((x84 (= x2 x68)) (x101 (= x44 x36)) (x30 (= x2 x129)) (x125 (= x44 x56)) (x62 (= x56 x152)) (x42 (= x93 x44)) (x143 (= x18 x15)) (x150 (= x152 x119)) (x85 (= x113 x15)) (x25 (= x88 x152)) (x28 (= x18 x2)) (x91 (= x34 x51)) (x55 (= x152 x83)) (x64 (= x92 x15)) (x58 (= x159 x34)) (x39 (= x2 x119)) (x102 (= x2 x36)) (x48 (= x2 x154)) (x140 (= x44 x59)) (x37 (= x15 x83)) (x52 (= x34 x59)) (x43 (= x34 x129)) (x105 (= x44 x70)) (x71 (= x2 x92)) (x89 (= x119 x34)) (x82 (= x36 x34)) (x155 (= x34 x108)) (x131 (= x34 x18)) (x14 (= x70 x15)) (x7 (= x68 x34)) (x146 (= x19 x152)) (x76 (= x92 x152)) (x100 (= x15 x68)) (x21 (= x70 x2)) (x151 (= x88 x2)) (x137 (= x61 x2)) (x53 (= x45 x44)) (x133 (= x152 x138)) (x49 (= x135 x152)) (x142 (= x34 x154)) (x46 (= x36 x152)) (x79 (= x83 x34)) (x80 (= x152 x4)) (x110 (= x11 x34)) (x73 (= x83 x44)) (x115 (= x61 x34)) (x104 (= x152 x51)) (x116 (= x152 x113)) (x33 (= x2 x45)) (x8 (= x11 x44)) (x74 (= x119 x44)) (x114 (= x34 x92)) (x9 (= x15 x135)) (x54 (= x129 x44)) (x26 (= x15 x138)) (x99 (= x59 x15)) (x12 (= x2 x59)) (x86 (= x94 x152)) (x144 (= x2 x19)) (x149 (= x36 x15)) (x40 (= x68 x152)) (x120 (= x154 x152)) (x98 (= x119 x15)) (x96 (= x93 x34)) (x63 (= x45 x152)) (x132 (= x56 x15)) (x136 (= x152 x59)) (x5 (= x88 x15)) (x124 (= x4 x15)) (x130 (= x18 x44)) (x32 (= x135 x44)) (x141 (= x2 x51)) (x77 (= x2 x4)) (x35 (= x19 x15)) (x31 (= x152 x93)) (x107 (= x159 x2)) (x24 (= x15 x11)) (x22 (= x108 x152)) (x112 (= x34 x56)) (x38 (= x152 x70)) (x69 (= x88 x34)) (x118 (= x2 x138)) (x29 (= x15 x94)) (x65 (= x15 x159)) (x97 (= x11 x2)) (x66 (= x138 x44)) (x147 (= x44 x4)) (x157 (= x152 x11)) (x111 (= x44 x159)) (x158 (= x108 x15)) (x128 (= x44 x92)) (x117 (= x2 x93)) (x72 (= x34 x45)) (x27 (= x15 x61)) (x109 (= x113 x34)) (x153 (= x129 x152)) (x122 (= x61 x44)) (x103 (= x135 x34)) (x17 (= x113 x2)) (x121 (= x34 x4)) (x16 (= x18 x152)) (x20 (= x135 x2)) (x13 (= x44 x94)) (x60 (= x152 x61)) (x139 (= x129 x15)) (x3 (= x44 x88)) (x6 (= x34 x138)) (x50 (= x19 x34)) (x127 (= x108 x2)) (x148 (= x44 x51)) (x57 (= x44 x108)) (x123 (= x51 x15)) (x87 (= x2 x94)) (x90 (= x15 x93)) (x78 (= x15 x154)) (x95 (= x2 x83)) (x10 (= x34 x94)) (x145 (= x45 x15)) (x67 (= x68 x44)) (x156 (= x44 x154)) (x23 (= x113 x44)) (x81 (= x152 x159)) (x41 (= x19 x44)) (x75 (= x70 x34)) (x126 (= x56 x2))) (and (and (and (and (and (and (and (or (or (or x17 (or x87 x77)) x107) x117) (or (or (or x20 (or x126 x77)) x144) x137)) (and (and (or (or x35 (or (or x132 x124) x9)) x27) (or (or x65 (or (or x124 x29) x85)) x90)) (and (and (or x115 (or x50 (or (or x121 x112) x103))) (or (or (or (or x121 x10) x109) x58) x96)) (and (or (or x81 (or x116 (or x86 x80))) x31) (or (or x146 (or (or x62 x80) x49)) x60))))) (and (or (or (or x32 (or x147 x125)) x41) x122) (or (or x111 (or (or x13 x147) x23)) x42))) (and (and (or (or x105 (or x74 (or x67 x13))) x130) (or (or (or (or x125 x67) x53) x3) x8)) (and (and (and (or (or x5 (or (or x100 x132) x145)) x24) (or (or (or (or x100 x29) x98) x14) x143)) (and (and (or (or (or x63 (or x62 x40)) x25) x157) (or (or (or x150 (or x86 x40)) x38) x16)) (and (or x131 (or x75 (or x89 (or x7 x10)))) (or x110 (or (or x72 (or x7 x112)) x69))))) (and (or x28 (or x21 (or (or x87 x84) x39))) (or x97 (or (or (or x84 x126) x33) x151)))))) (and (and (or (or (or x54 (or x74 x32)) x66) x156) (or (or x101 (or (or x53 x23) x54)) x128)) (and (and (and (and (or (or x6 (or (or x103 x89) x43)) x142) (or (or (or x43 (or x109 x72)) x82) x114)) (and (or x120 (or (or (or x49 x150) x153) x133)) (or (or (or (or x63 x116) x153) x46) x76))) (and (or x64 (or (or (or x145 x85) x139) x149)) (or (or x26 (or (or x9 x98) x139)) x78))) (and (or (or (or (or x20 x39) x30) x118) x48) (or (or (or x30 (or x17 x33)) x102) x71))))) (and (and (or (or (or x66 (or x3 x111)) x140) x73) (or x57 (or x140 (or (or x41 x105) x101)))) (and (and (and (or x37 (or x99 (or x26 (or x5 x65)))) (or (or (or x149 (or x35 x14)) x99) x158)) (and (and (or x79 (or x52 (or (or x58 x69) x6))) (or (or x52 (or x82 (or x75 x50))) x155)) (and (or x55 (or x136 (or x133 (or x81 x25)))) (or x22 (or (or x46 (or x146 x38)) x136))))) (and (or (or (or x118 (or x151 x107)) x12) x95) (or x127 (or x12 (or x102 (or x144 x21)))))))) (and (and (or x148 (or (or (or x130 x122) x128) x73)) (or x148 (or x57 (or (or x42 x8) x156)))) (and (and (or (or (or (or x117 x97) x48) x127) x141) (or x141 (or x95 (or (or x137 x28) x71)))) (and (and (or x123 (or (or (or x143 x27) x64) x37)) (or (or (or (or x24 x90) x78) x158) x123)) (and (and (or x104 (or (or (or x60 x16) x76) x55)) (or x104 (or (or x120 (or x157 x31)) x22))) (and (or (or (or (or x131 x115) x114) x79) x91) (or (or x155 (or x142 (or x96 x110))) x91))))))))))
(assert (let ((x61 (x106 x44 x44)) (x56 (x106 x34 x34)) (x4 (x106 x152 x152)) (x135 (x106 x15 x15)) (x19 (x106 x2 x2))) (let ((x147 (= x2 x19)) (x77 (= x15 x135)) (x86 (= x61 x44)) (x80 (= x4 x152)) (x94 (= x56 x34))) (let ((x124 (or (or (= x19 x44) (or (or (= x56 x44) (= x44 x4)) (= x44 x135))) x86)) (x93 (or (or x147 (or (or (= x4 x2) (= x2 x56)) (= x2 x135))) (= x61 x2))) (x121 (or (= x152 x61) (or (or (or (= x152 x56) x80) (= x135 x152)) (= x152 x19)))) (x159 (or (= x15 x61) (or (= x19 x15) (or (or (= x56 x15) (= x4 x15)) x77)))) (x113 (or (= x34 x61) (or (= x34 x19) (or (or (= x4 x34) x94) (= x135 x34)))))) (and (and (and (or x124 (not (= (x106 x2 x44) x2))) (and (or (not x147) x93) (and (or x159 (not (= (x106 x2 x15) x2))) (and (or (not (= x2 (x106 x2 x152))) x121) (or x113 (not (= x2 (x106 x2 x34)))))))) (and (and (and (and (or (not (= (x106 x152 x2) x152)) x93) (and (or (not (= x152 (x106 x152 x15))) x159) (and (or x121 (not x80)) (or (not (= (x106 x152 x34) x152)) x113)))) (or x124 (not (= x152 (x106 x152 x44))))) (and (or (not (= (x106 x34 x44) x34)) x124) (and (or (not (= x34 (x106 x34 x2))) x93) (and (and (or x121 (not (= (x106 x34 x152) x34))) (or (not x94) x113)) (or x159 (not (= x34 (x106 x34 x15)))))))) (and (and (or (not (= (x106 x15 x2) x15)) x93) (and (or x159 (not x77)) (and (or x121 (not (= (x106 x15 x152) x15))) (or x113 (not (= (x106 x15 x34) x15)))))) (or (not (= (x106 x15 x44) x15)) x124)))) (and (or x124 (not x86)) (and (and (and (or (not (= x44 (x106 x44 x152))) x121) (or (not (= x44 (x106 x44 x34))) x113)) (or x159 (not (= x44 (x106 x44 x15))))) (or x93 (not (= x44 (x106 x44 x2)))))))))))
(assert (let ((x19 (x106 x44 x44)) (x56 (x106 x15 x15)) (x4 (x106 x34 x34)) (x135 (x106 x2 x2)) (x80 (x106 x152 x152))) (or (or (or (and (and (not (= x2 (x106 x2 x56))) (and (and (not (= x34 (x106 x34 x56))) (not (= (x106 x152 x56) x152))) (not (= (x106 x15 x56) x15)))) (not (= (x106 x44 x56) x44))) (or (and (and (and (and (not (= (x106 x34 x4) x34)) (not (= (x106 x152 x4) x152))) (not (= (x106 x15 x4) x15))) (not (= x2 (x106 x2 x4)))) (not (= (x106 x44 x4) x44))) (and (not (= (x106 x44 x80) x44)) (and (and (not (= (x106 x15 x80) x15)) (and (not (= x152 (x106 x152 x80))) (not (= (x106 x34 x80) x34)))) (not (= x2 (x106 x2 x80))))))) (and (and (not (= x2 (x106 x2 x135))) (and (not (= (x106 x15 x135) x15)) (and (not (= (x106 x34 x135) x34)) (not (= x152 (x106 x152 x135)))))) (not (= (x106 x44 x135) x44)))) (and (not (= x44 (x106 x44 x19))) (and (and (and (not (= (x106 x34 x19) x34)) (not (= (x106 x152 x19) x152))) (not (= (x106 x15 x19) x15))) (not (= (x106 x2 x19) x2)))))))
(assert (or (and (not (= x44 (x106 x44 (x106 x44 x44)))) (and (not (= x2 (x106 x44 (x106 x44 x2)))) (and (and (not (= (x106 x44 (x106 x44 x152)) x152)) (not (= (x106 x44 (x106 x44 x34)) x34))) (not (= (x106 x44 (x106 x44 x15)) x15))))) (or (or (and (and (and (not (= x15 (x106 x15 (x106 x15 x15)))) (and (not (= x152 (x106 x15 (x106 x15 x152)))) (not (= x34 (x106 x15 (x106 x15 x34)))))) (not (= (x106 x15 (x106 x15 x2)) x2))) (not (= (x106 x15 (x106 x15 x44)) x44))) (or (and (not (= x44 (x106 x152 (x106 x152 x44)))) (and (not (= (x106 x152 (x106 x152 x2)) x2)) (and (and (not (= (x106 x152 (x106 x152 x34)) x34)) (not (= (x106 x152 (x106 x152 x152)) x152))) (not (= x15 (x106 x152 (x106 x152 x15))))))) (and (and (not (= (x106 x34 (x106 x34 x2)) x2)) (and (not (= x15 (x106 x34 (x106 x34 x15)))) (and (not (= x34 (x106 x34 (x106 x34 x34)))) (not (= x152 (x106 x34 (x106 x34 x152))))))) (not (= (x106 x34 (x106 x34 x44)) x44))))) (and (not (= (x106 x2 (x106 x2 x44)) x44)) (and (and (and (not (= x152 (x106 x2 (x106 x2 x152)))) (not (= (x106 x2 (x106 x2 x34)) x34))) (not (= x15 (x106 x2 (x106 x2 x15))))) (not (= (x106 x2 (x106 x2 x2)) x2)))))))
(assert (and (and (not (= x15 x44)) (and (not (= x15 x2)) (and (and (not (= x34 x2)) (and (not (= x15 x34)) (and (not (= x44 x152)) (and (not (= x152 x2)) (and (not (= x15 x152)) (not (= x34 x152))))))) (not (= x34 x44))))) (not (= x2 x44))))
(assert (let ((x61 (x106 x152 x34)) (x113 (x106 x2 x34)) (x10 (x106 x15 x2)) (x121 (x106 x34 x34)) (x4 (x106 x34 x152)) (x7 (x106 x2 x44)) (x119 (x106 x44 x2)) (x112 (x106 x15 x44)) (x18 (x106 x34 x44)) (x135 (x106 x2 x152)) (x56 (x106 x15 x152)) (x159 (x106 x44 x34)) (x77 (x106 x15 x15)) (x147 (x106 x2 x15)) (x62 (x106 x152 x2)) (x40 (x106 x34 x2)) (x93 (x106 x152 x15)) (x45 (x106 x44 x44)) (x68 (x106 x2 x2)) (x86 (x106 x44 x15)) (x70 (x106 x152 x44)) (x124 (x106 x34 x15)) (x19 (x106 x44 x152)) (x94 (x106 x15 x34)) (x80 (x106 x152 x152))) (and (and (and (and (not (= x45 x112)) (and (not (= x112 x7)) (and (not (= x18 x45)) (and (and (not (= x112 x18)) (and (not (= x70 x45)) (and (not (= x70 x7)) (and (not (= x112 x70)) (not (= x18 x70)))))) (not (= x18 x7)))))) (not (= x45 x7))) (and (and (and (not (= x86 x147)) (and (not (= x86 x77)) (and (not (= x77 x147)) (and (not (= x124 x86)) (and (and (and (not (= x86 x93)) (and (and (not (= x124 x93)) (not (= x77 x93))) (not (= x93 x147)))) (not (= x77 x124))) (not (= x124 x147))))))) (and (and (not (= x19 x135)) (and (and (and (and (and (not (= x4 x56)) (and (and (not (= x80 x135)) (and (not (= x80 x56)) (not (= x4 x80)))) (not (= x19 x80)))) (not (= x135 x4))) (not (= x4 x19))) (not (= x56 x135))) (not (= x56 x19)))) (and (not (= x113 x159)) (and (not (= x159 x94)) (and (not (= x113 x94)) (and (not (= x159 x121)) (and (and (and (and (not (= x61 x113)) (and (not (= x61 x94)) (not (= x61 x121)))) (not (= x61 x159))) (not (= x121 x94))) (not (= x113 x121))))))))) (and (not (= x68 x119)) (and (not (= x10 x119)) (and (not (= x10 x68)) (and (and (not (= x68 x40)) (and (and (not (= x62 x119)) (and (not (= x62 x68)) (and (not (= x10 x62)) (not (= x62 x40))))) (not (= x10 x40)))) (not (= x40 x119)))))))) (and (and (not (= x45 x119)) (and (and (not (= x86 x119)) (and (not (= x45 x159)) (and (not (= x119 x159)) (and (and (and (and (not (= x19 x159)) (not (= x19 x86))) (not (= x19 x119))) (not (= x45 x19))) (not (= x159 x86)))))) (not (= x86 x45)))) (and (and (and (not (= x147 x7)) (and (and (not (= x113 x7)) (and (not (= x113 x68)) (and (and (not (= x7 x135)) (and (not (= x135 x68)) (and (not (= x113 x135)) (not (= x135 x147))))) (not (= x147 x113))))) (not (= x147 x68)))) (not (= x7 x68))) (and (and (and (not (= x40 x18)) (and (and (and (not (= x121 x18)) (and (not (= x121 x40)) (and (not (= x121 x124)) (and (and (not (= x4 x40)) (and (not (= x121 x4)) (not (= x124 x4)))) (not (= x4 x18)))))) (not (= x40 x124))) (not (= x18 x124)))) (and (and (not (= x70 x93)) (and (and (not (= x61 x70)) (and (not (= x61 x62)) (and (not (= x93 x61)) (and (and (and (not (= x80 x93)) (not (= x80 x61))) (not (= x62 x80))) (not (= x70 x80)))))) (not (= x93 x62)))) (not (= x70 x62)))) (and (not (= x10 x112)) (and (not (= x112 x77)) (and (not (= x77 x10)) (and (and (not (= x94 x10)) (and (and (not (= x112 x56)) (and (not (= x56 x10)) (and (not (= x56 x77)) (not (= x56 x94))))) (not (= x77 x94)))) (not (= x94 x112))))))))))))
(assert (and (= x44 (x106 x2 x15)) (and (= x2 (x106 x15 x15)) (and (= x152 (x106 x2 x34)) (= (x106 x44 x2) x34)))))
(assert (let ((x63 (x106 x34 x34)) (x72 (x106 x2 x34)) (x145 (x106 x2 x15)) (x29 (x106 x152 x34)) (x88 (x106 x152 x152)) (x74 (x106 x44 x2)) (x87 (x106 x15 x152)) (x109 (x106 x34 x2)) (x85 (x106 x15 x2)) (x125 (x106 x44 x152)) (x9 (x106 x15 x44)) (x129 (x106 x34 x44)) (x98 (x106 x44 x15)) (x138 (x106 x15 x15)) (x58 (x106 x44 x44)) (x32 (x106 x2 x44)) (x100 (x106 x152 x15)) (x150 (x106 x34 x15)) (x23 (x106 x2 x2)) (x153 (x106 x15 x34)) (x126 (x106 x152 x2)) (x132 (x106 x34 x152)) (x36 (x106 x44 x34)) (x13 (x106 x152 x44)) (x84 (x106 x2 x152))) (let ((x19 (not (= x152 x87))) (x77 (not (= x152 x109))) (x42 (not (= x125 x44))) (x43 (not (= x34 x150))) (x67 (not (= x132 x34))) (x102 (not (= x15 x98))) (x4 (not (= x132 x152))) (x112 (not (= x152 x74))) (x147 (not (= x145 x152))) (x76 (not (= x126 x2))) (x49 (not (= x63 x34))) (x66 (not (= x15 x58))) (x114 (not (= x98 x2))) (x81 (not (= x34 x13))) (x70 (not (= x98 x152))) (x30 (not (= x85 x34))) (x139 (not (= x34 x84))) (x18 (not (= x9 x152))) (x108 (not (= x150 x15))) (x11 (not (= x34 x88))) (x118 (not (= x15 x13))) (x149 (not (= x15 x145))) (x157 (not (= x100 x2))) (x140 (not (= x63 x2))) (x128 (not (= x74 x44))) (x124 (not (= x72 x152))) (x53 (not (= x34 x23))) (x75 (not (= x87 x15))) (x65 (not (= x138 x15))) (x96 (not (= x145 x2))) (x78 (not (= x88 x44))) (x94 (not (= x150 x152))) (x80 (not (= x88 x152))) (x40 (not (= x152 x125))) (x35 (not (= x72 x15))) (x21 (not (= x15 x129))) (x12 (not (= x15 x9))) (x39 (not (= x34 x145))) (x6 (not (= x88 x15))) (x143 (not (= x63 x44))) (x59 (not (= x132 x15))) (x41 (not (= x88 x2))) (x93 (not (= x152 x126))) (x26 (not (= x126 x15))) (x115 (not (= x2 x36))) (x48 (not (= x84 x44))) (x113 (not (= x138 x152))) (x131 (not (= x2 x129))) (x25 (not (= x36 x34))) (x69 (not (= x58 x34))) (x83 (not (= x15 x29))) (x90 (not (= x32 x2))) (x8 (not (= x13 x44))) (x22 (not (= x150 x2))) (x45 (not (= x152 x58))) (x3 (not (= x32 x15))) (x37 (not (= x100 x44))) (x107 (not (= x15 x23))) (x33 (not (= x72 x34))) (x52 (not (= x15 x153))) (x54 (not (= x34 x125))) (x20 (not (= x34 x109))) (x120 (not (= x2 x153))) (x158 (not (= x44 x132))) (x151 (not (= x15 x125))) (x89 (not (= x153 x34))) (x68 (not (= x152 x36))) (x127 (not (= x126 x44))) (x62 (not (= x152 x23))) (x50 (not (= x15 x63))) (x57 (not (= x44 x129))) (x60 (not (= x2 x138))) (x117 (not (= x44 x150))) (x123 (not (= x153 x44))) (x137 (not (= x72 x44))) (x148 (not (= x44 x58))) (x27 (not (= x44 x29))) (x24 (not (= x2 x58))) (x61 (not (= x100 x152))) (x91 (not (= x2 x74))) (x16 (not (= x84 x2))) (x110 (not (= x2 x85))) (x156 (not (= x36 x44))) (x111 (not (= x74 x15))) (x64 (not (= x44 x87))) (x155 (not (= x125 x2))) (x38 (not (= x34 x9))) (x104 (not (= x109 x2))) (x130 (not (= x9 x44))) (x154 (not (= x34 x138))) (x101 (not (= x2 x29))) (x133 (not (= x34 x129))) (x10 (not (= x152 x13))) (x82 (not (= x100 x15))) (x144 (not (= x15 x36))) (x103 (not (= x100 x34))) (x17 (not (= x126 x34))) (x142 (not (= x23 x2))) (x122 (not (= x44 x98))) (x86 (not (= x85 x152))) (x46 (not (= x74 x34))) (x99 (not (= x15 x85))) (x92 (not (= x87 x34))) (x5 (not (= x15 x84))) (x71 (not (= x145 x44))) (x51 (not (= x13 x2))) (x159 (not (= x152 x84))) (x7 (not (= x152 x32))) (x55 (not (= x2 x72))) (x97 (not (= x44 x138))) (x146 (not (= x34 x98))) (x28 (not (= x109 x44))) (x119 (not (= x152 x129))) (x116 (not (= x34 x29))) (x14 (not (= x109 x15))) (x56 (not (= x152 x29))) (x79 (not (= x9 x2))) (x136 (not (= x34 x32))) (x121 (not (= x152 x153))) (x135 (not (= x152 x63))) (x141 (not (= x44 x23))) (x73 (not (= x32 x44))) (x31 (not (= x2 x87))) (x95 (not (= x85 x44))) (x105 (not (= x2 x132)))) (or (and (and (and (or x128 x73) (and (or x122 x130) (and (or x42 x8) (or x57 x156)))) (or x148 x148)) (and (and (and (and (or x95 x71) (and (and (or x64 x37) (or x123 x117)) (or x97 x97))) (or x122 x130)) (and (and (or x42 x8) (and (and (and (or x78 x78) (or x27 x158)) (or x64 x37)) (or x48 x127))) (and (or x57 x156) (and (or x28 x137) (and (and (or x158 x27) (or x143 x143)) (or x117 x123)))))) (and (or x128 x73) (and (or x141 x141) (and (and (or x28 x137) (or x127 x48)) (or x71 x95)))))) (or (or (or (and (and (and (or x7 x112) (and (and (or x147 x86) (and (or x124 x77) (or x93 x159))) (or x62 x62))) (and (and (and (or x10 x40) (and (and (and (or x80 x80) (or x4 x56)) (or x19 x61)) (or x159 x93))) (and (and (and (or x121 x94) (and (or x135 x135) (or x56 x4))) (or x77 x124)) (or x68 x119))) (and (and (or x147 x86) (and (and (or x121 x94) (or x19 x61)) (or x113 x113))) (or x18 x70)))) (and (or x45 x45) (and (and (or x18 x70) (and (or x40 x10) (or x68 x119))) (or x7 x112)))) (and (and (and (and (and (and (or x139 x17) (and (and (or x11 x11) (or x67 x116)) (or x103 x92))) (or x81 x54)) (and (and (and (and (or x49 x49) (or x116 x67)) (or x89 x43)) (or x20 x33)) (or x25 x133))) (and (or x146 x38) (and (and (or x154 x154) (and (or x92 x103) (or x89 x43))) (or x39 x30)))) (and (or x136 x46) (and (and (or x39 x30) (and (or x20 x33) (or x139 x17))) (or x53 x53)))) (and (or x69 x69) (and (and (or x146 x38) (and (or x25 x133) (or x54 x81))) (or x136 x46))))) (and (and (and (or x111 x3) (and (or x12 x102) (and (or x118 x151) (or x144 x21)))) (or x66 x66)) (and (and (and (or x12 x102) (and (and (and (or x108 x52) (or x75 x82)) (or x65 x65)) (or x99 x149))) (and (and (or x151 x118) (and (and (or x82 x75) (and (or x59 x83) (or x6 x6))) (or x26 x5))) (and (or x21 x144) (and (or x14 x35) (and (and (or x50 x50) (or x59 x83)) (or x108 x52)))))) (and (or x111 x3) (and (and (and (or x26 x5) (or x14 x35)) (or x149 x99)) (or x107 x107)))))) (and (and (and (or x91 x90) (and (or x142 x142) (and (or x110 x96) (and (or x104 x55) (or x76 x16))))) (and (and (and (and (or x55 x104) (and (and (or x105 x101) (or x140 x140)) (or x22 x120))) (or x131 x115)) (and (and (or x16 x76) (and (and (or x101 x105) (or x41 x41)) (or x31 x157))) (or x155 x51))) (and (or x114 x79) (and (or x96 x110) (and (or x60 x60) (and (or x157 x31) (or x120 x22))))))) (and (and (and (or x79 x114) (and (or x131 x115) (or x51 x155))) (or x90 x91)) (or x24 x24))))))))
(assert (and (or (or (= (x106 x2 (x106 x44 x2)) x44) (or (or (= (x106 x152 (x106 x44 x152)) x44) (= x44 (x106 x34 (x106 x44 x34)))) (= x44 (x106 x15 (x106 x44 x15))))) (= (x106 x44 (x106 x44 x44)) x44)) (and (and (and (or (or (= x34 (x106 x2 (x106 x34 x2))) (or (or (= x34 (x106 x34 (x106 x34 x34))) (= x34 (x106 x152 (x106 x34 x152)))) (= x34 (x106 x15 (x106 x34 x15))))) (= x34 (x106 x44 (x106 x34 x44)))) (or (or (= (x106 x2 (x106 x152 x2)) x152) (or (or (= (x106 x34 (x106 x152 x34)) x152) (= (x106 x152 (x106 x152 x152)) x152)) (= x152 (x106 x15 (x106 x152 x15))))) (= (x106 x44 (x106 x152 x44)) x152))) (or (or (= (x106 x2 (x106 x15 x2)) x15) (or (= x15 (x106 x15 (x106 x15 x15))) (or (= x15 (x106 x34 (x106 x15 x34))) (= (x106 x152 (x106 x15 x152)) x15)))) (= x15 (x106 x44 (x106 x15 x44))))) (or (= x2 (x106 x44 (x106 x2 x44))) (or (= x2 (x106 x2 (x106 x2 x2))) (or (= (x106 x15 (x106 x2 x15)) x2) (or (= (x106 x152 (x106 x2 x152)) x2) (= (x106 x34 (x106 x2 x34)) x2))))))))
(assert (or (and (and (and (not (= (x106 (x106 x15 x44) x44) x15)) (and (not (= x152 (x106 (x106 x152 x44) x44))) (not (= x34 (x106 (x106 x34 x44) x44))))) (not (= (x106 (x106 x2 x44) x44) x2))) (not (= (x106 (x106 x44 x44) x44) x44))) (or (or (or (and (not (= x44 (x106 (x106 x44 x152) x152))) (and (and (and (not (= x152 (x106 (x106 x152 x152) x152))) (not (= (x106 (x106 x34 x152) x152) x34))) (not (= (x106 (x106 x15 x152) x152) x15))) (not (= (x106 (x106 x2 x152) x152) x2)))) (and (not (= x44 (x106 (x106 x44 x34) x34))) (and (not (= x2 (x106 (x106 x2 x34) x34))) (and (and (not (= (x106 (x106 x152 x34) x34) x152)) (not (= x34 (x106 (x106 x34 x34) x34)))) (not (= x15 (x106 (x106 x15 x34) x34))))))) (and (not (= (x106 (x106 x44 x15) x15) x44)) (and (not (= x2 (x106 (x106 x2 x15) x15))) (and (not (= x15 (x106 (x106 x15 x15) x15))) (and (not (= x152 (x106 (x106 x152 x15) x15))) (not (= x34 (x106 (x106 x34 x15) x15)))))))) (and (and (not (= x2 (x106 (x106 x2 x2) x2))) (and (and (not (= x34 (x106 (x106 x34 x2) x2))) (not (= (x106 (x106 x152 x2) x2) x152))) (not (= x15 (x106 (x106 x15 x2) x2))))) (not (= (x106 (x106 x44 x2) x2) x44))))))
(assert (not (and (= x152 (x106 x44 x44)) (and (and (and (= (x106 x44 x34) x44) (and (and (= x34 (x106 x2 x44)) (and (= x2 (x106 x2 x2)) (and (= (x106 x2 x15) x44) (and (and (= (x106 x2 x152) x15) (and (and (and (= (x106 x15 x15) x2) (and (= (x106 x15 x34) x34) (and (and (= x2 (x106 x34 x44)) (and (and (= (x106 x34 x15) x34) (and (= x15 (x106 x34 x34)) (and (and (and (and (= (x106 x152 x15) x152) (and (= x2 (x106 x152 x34)) (= (x106 x152 x152) x34))) (= x44 (x106 x152 x2))) (= (x106 x152 x44) x15)) (= x44 (x106 x34 x152))))) (= (x106 x34 x2) x152))) (= (x106 x15 x152) x152)))) (= x15 (x106 x15 x2))) (= (x106 x15 x44) x44))) (= (x106 x2 x34) x152))))) (= (x106 x44 x152) x2))) (= x15 (x106 x44 x15))) (= (x106 x44 x2) x34)))))
(assert (let ((x135 (x106 x2 x2)) (x19 (x106 x44 x44)) (x56 (x106 x15 x15)) (x4 (x106 x34 x34)) (x80 (x106 x152 x152))) (or (and (not (= x44 x19)) (and (not (= x135 x44)) (and (and (not (= x80 x44)) (not (= x44 x4))) (not (= x44 x56))))) (or (or (and (not (= x15 x19)) (and (and (and (not (= x15 x80)) (not (= x4 x15))) (not (= x15 x56))) (not (= x15 x135)))) (or (and (not (= x19 x34)) (and (and (not (= x56 x34)) (and (not (= x4 x34)) (not (= x34 x80)))) (not (= x135 x34)))) (and (and (and (not (= x152 x56)) (and (not (= x152 x80)) (not (= x4 x152)))) (not (= x135 x152))) (not (= x152 x19))))) (and (not (= x2 x19)) (and (not (= x135 x2)) (and (not (= x2 x56)) (and (not (= x80 x2)) (not (= x2 x4))))))))))
(assert (let ((x18 (x106 x34 x44)) (x56 (x106 x15 x152)) (x113 (x106 x2 x34)) (x93 (x106 x152 x15)) (x135 (x106 x2 x152)) (x62 (x106 x152 x2)) (x77 (x106 x15 x15)) (x4 (x106 x34 x152)) (x10 (x106 x15 x2)) (x68 (x106 x2 x2)) (x80 (x106 x152 x152)) (x147 (x106 x2 x15)) (x7 (x106 x2 x44)) (x121 (x106 x34 x34)) (x19 (x106 x44 x152)) (x94 (x106 x15 x34)) (x40 (x106 x34 x2)) (x61 (x106 x152 x34)) (x119 (x106 x44 x2)) (x159 (x106 x44 x34)) (x86 (x106 x44 x15)) (x112 (x106 x15 x44)) (x45 (x106 x44 x44)) (x70 (x106 x152 x44)) (x124 (x106 x34 x15))) (or (or (or (and (or (not (= (x106 x44 x86) x15)) (not (= x86 x112))) (and (and (or (not (= (x106 x15 x77) x15)) (not (= x77 x77))) (and (or (not (= (x106 x34 x124) x15)) (not (= x124 x94))) (or (not (= (x106 x152 x93) x15)) (not (= x93 x56))))) (or (not (= (x106 x2 x147) x15)) (not (= x147 x10))))) (or (and (and (or (not (= x62 x135)) (not (= (x106 x2 x135) x152))) (and (or (not (= x93 x56)) (not (= (x106 x15 x56) x152))) (and (or (not (= x152 (x106 x34 x4))) (not (= x61 x4))) (or (not (= (x106 x152 x80) x152)) (not (= x80 x80)))))) (or (not (= x70 x19)) (not (= x152 (x106 x44 x19))))) (and (and (or (not (= x34 (x106 x2 x113))) (not (= x113 x40))) (and (and (or (not (= x34 (x106 x152 x61))) (not (= x61 x4))) (or (not (= x121 x121)) (not (= (x106 x34 x121) x34)))) (or (not (= x34 (x106 x15 x94))) (not (= x124 x94))))) (or (not (= x159 x18)) (not (= x34 (x106 x44 x159))))))) (and (and (and (or (not (= x147 x10)) (not (= (x106 x15 x10) x2))) (and (or (not (= x62 x135)) (not (= (x106 x152 x62) x2))) (or (not (= x113 x40)) (not (= (x106 x34 x40) x2))))) (or (not (= x68 x68)) (not (= x2 (x106 x2 x68))))) (or (not (= x2 (x106 x44 x119))) (not (= x119 x7))))) (and (and (and (or (not (= x44 (x106 x15 x112))) (not (= x86 x112))) (and (or (not (= (x106 x34 x18) x44)) (not (= x18 x159))) (or (not (= x70 x19)) (not (= (x106 x152 x70) x44))))) (or (not (= (x106 x2 x7) x44)) (not (= x119 x7)))) (or (not (= x45 x45)) (not (= (x106 x44 x45) x44)))))))
(assert (and (or (or (or (or (= (x106 (x106 x44 x34) x44) x34) (= x152 (x106 (x106 x44 x152) x44))) (= (x106 (x106 x44 x15) x44) x15)) (= x2 (x106 (x106 x44 x2) x44))) (= (x106 (x106 x44 x44) x44) x44)) (and (or (= (x106 (x106 x2 x44) x2) x44) (or (or (= (x106 (x106 x2 x15) x2) x15) (or (= x34 (x106 (x106 x2 x34) x2)) (= x152 (x106 (x106 x2 x152) x2)))) (= x2 (x106 (x106 x2 x2) x2)))) (and (and (or (= x44 (x106 (x106 x34 x44) x34)) (or (= x2 (x106 (x106 x34 x2) x34)) (or (= x15 (x106 (x106 x34 x15) x34)) (or (= x152 (x106 (x106 x34 x152) x34)) (= x34 (x106 (x106 x34 x34) x34)))))) (or (or (= (x106 (x106 x152 x2) x152) x2) (or (= x15 (x106 (x106 x152 x15) x152)) (or (= x34 (x106 (x106 x152 x34) x152)) (= (x106 (x106 x152 x152) x152) x152)))) (= (x106 (x106 x152 x44) x152) x44))) (or (or (or (= x15 (x106 (x106 x15 x15) x15)) (or (= (x106 (x106 x15 x34) x15) x34) (= (x106 (x106 x15 x152) x15) x152))) (= (x106 (x106 x15 x2) x15) x2)) (= (x106 (x106 x15 x44) x15) x44))))))
(check-sat)
(exit)
